p cnf 80 42
r 0.156 80 0
e 40 0
r 0.885 79 0
e 39 0
r 0.233 78 0
e 38 0
r 0.333 77 0
e 37 0
r 0.182 76 0
e 36 0
r 0.147 75 0
e 35 0
r 0.981 74 0
e 34 0
r 0.028 73 0
e 33 0
r 0.703 72 0
e 32 0
r 0.301 71 0
e 31 0
r 0.231 70 0
e 30 0
r 0.503 69 0
e 29 0
r 0.901 68 0
e 28 0
r 0.667 67 0
e 27 0
r 0.993 66 0
e 26 0
r 0.972 65 0
e 25 0
r 0.171 64 0
e 24 0
r 0.134 63 0
e 23 0
r 0.172 62 0
e 22 0
r 0.67 61 0
e 21 0
r 0.8 60 0
e 20 0
r 0.507 59 0
e 19 0
r 0.169 58 0
e 18 0
r 0.249 57 0
e 17 0
r 0.823 56 0
e 16 0
r 0.166 55 0
e 15 0
r 0.787 54 0
e 14 0
r 0.173 53 0
e 13 0
r 0.878 52 0
e 12 0
r 0.116 51 0
e 11 0
r 0.525 50 0
e 10 0
r 0.575 49 0
e 9 0
r 0.778 48 0
e 8 0
r 0.44 47 0
e 7 0
r 0.517 46 0
e 6 0
r 0.852 45 0
e 5 0
r 0.83 44 0
e 4 0
r 0.038 43 0
e 3 0
r 0.967 42 0
e 2 0
r 0.066 41 0
e 1 0
-40 0
40 79 -39 -78 -38 0
39 78 -38 -77 -37 0
38 77 -37 -76 -36 0
37 76 -36 -75 -35 0
36 75 -35 -74 -34 0
35 74 -34 -73 -33 0
34 73 -33 -72 -32 0
33 72 -32 -71 -31 0
32 71 -31 -70 -30 0
31 70 -30 -69 -29 0
30 69 -29 -68 -28 0
29 68 -28 -67 -27 0
28 67 -27 -66 -26 0
27 66 -26 -65 -25 0
26 65 -25 -64 -24 0
25 64 -24 -63 -23 0
24 63 -23 -62 -22 0
23 62 -22 -61 -21 0
22 61 -21 -60 -20 0
21 60 -20 -59 -19 0
20 59 -19 -58 -18 0
19 58 -18 -57 -17 0
18 57 -17 -56 -16 0
17 56 -16 -55 -15 0
16 55 -15 -54 -14 0
15 54 -14 -53 -13 0
14 53 -13 -52 -12 0
13 52 -12 -51 -11 0
12 51 -11 -50 -10 0
11 50 -10 -49 -9 0
10 49 -9 -48 -8 0
9 48 -8 -47 -7 0
8 47 -7 -46 -6 0
7 46 -6 -45 -5 0
6 45 -5 -44 -4 0
5 44 -4 -43 -3 0
4 43 -3 -42 -2 0
3 42 -2 -41 -1 0
2 1 0
2 -1 0
-2 1 0
